
;this file is automatically generated: Thu Oct 22 12:49:10 CST 2020

;declarations generated

(declare-fun type_5bfd3d76_22a6_435f_840f_b1a211d5b666_B ( Int) Bool)
(declare-fun type_ea6fa106_90a4_474d_9220_c5e5dc667f6b_A ( Int) Bool)
(declare-fun oclExcludes ( Int Int) Bool)
(declare-fun obj_fde44bb6_6adf_4a21_8f84_20fb42eba9c2 ( Int) Int)
(declare-fun type_08a444ae_c3a5_43ec_b962_5cb062fc149f_C ( Int) Bool)
(declare-fun oclSelect ( Int Bool) Int)
(declare-fun Cardinality ( Int) Int)
(declare-fun container_ ( Int) Int)
(declare-fun oclIncludes ( Int Int) Bool)
(declare-fun aux1 () Int)
(declare-fun aux0 () Int)
(declare-fun aux3 () Int)
(declare-fun aux2 () Int)
(declare-fun type_db776c23_5624_4dc6_b2ea_a00bc3aa9545_D ( Int) Bool)
(declare-fun aux4 () Int)
(declare-fun weight4 () Int)
(declare-fun weight3 () Int)
(declare-fun ObjAt ( Int Int) Int)
(declare-fun weight2 () Int)
(declare-fun weight1 () Int)
(declare-fun weight0 () Int)

;formula(s) generated
(assert (and (>= aux0 0) (<= aux0 1)))
(assert (or (or (forall ((b Int)) (=> (and ( type_5bfd3d76_22a6_435f_840f_b1a211d5b666_B b )  ( type_ea6fa106_90a4_474d_9220_c5e5dc667f6b_A b ) ) (forall ((c Int)) (=> (and ( type_08a444ae_c3a5_43ec_b962_5cb062fc149f_C c )  ( type_ea6fa106_90a4_474d_9220_c5e5dc667f6b_A c ) ) (not (= ( obj_fde44bb6_6adf_4a21_8f84_20fb42eba9c2 b )  ( obj_fde44bb6_6adf_4a21_8f84_20fb42eba9c2 c ) ) ))))) (and (= aux0 1) true)) (and (= aux0 0) false)))
(assert (and (=> (= aux0 0) (= weight0 1)) (=> (= aux0 1) (= weight0 0))))
(assert (and (>= aux1 0) (<= aux1 1)))
(assert (and (>= aux2 0) (<= aux2 1)))
(assert (and (>= aux3 0) (<= aux3 1)))
(assert (and (>= aux4 0) (<= aux4 1)))
(assert (or (or (exists ((p Int)) ( type_ea6fa106_90a4_474d_9220_c5e5dc667f6b_A ( obj_fde44bb6_6adf_4a21_8f84_20fb42eba9c2 p )  ) ) (and (= aux1 1) true)) (and (= aux1 0) false)))
(assert (and (=> (= aux1 0) (= weight1 1)) (=> (= aux1 1) (= weight1 0))))
(assert (or (or (exists ((p Int)) (and ( type_5bfd3d76_22a6_435f_840f_b1a211d5b666_B ( obj_fde44bb6_6adf_4a21_8f84_20fb42eba9c2 p )  )  ( type_ea6fa106_90a4_474d_9220_c5e5dc667f6b_A ( obj_fde44bb6_6adf_4a21_8f84_20fb42eba9c2 p )  ) )) (and (= aux2 1) true)) (and (= aux2 0) false)))
(assert (and (=> (= aux2 0) (= weight2 1)) (=> (= aux2 1) (= weight2 0))))
(assert (or (or (exists ((p Int)) (and ( type_08a444ae_c3a5_43ec_b962_5cb062fc149f_C ( obj_fde44bb6_6adf_4a21_8f84_20fb42eba9c2 p )  )  ( type_ea6fa106_90a4_474d_9220_c5e5dc667f6b_A ( obj_fde44bb6_6adf_4a21_8f84_20fb42eba9c2 p )  ) )) (and (= aux3 1) true)) (and (= aux3 0) false)))
(assert (and (=> (= aux3 0) (= weight3 1)) (=> (= aux3 1) (= weight3 0))))
(assert (or (or (exists ((p Int)) (and (and (and ( type_db776c23_5624_4dc6_b2ea_a00bc3aa9545_D ( obj_fde44bb6_6adf_4a21_8f84_20fb42eba9c2 p )  )  ( type_ea6fa106_90a4_474d_9220_c5e5dc667f6b_A ( obj_fde44bb6_6adf_4a21_8f84_20fb42eba9c2 p )  ) ) ( type_5bfd3d76_22a6_435f_840f_b1a211d5b666_B ( obj_fde44bb6_6adf_4a21_8f84_20fb42eba9c2 p )  ) ) ( type_08a444ae_c3a5_43ec_b962_5cb062fc149f_C ( obj_fde44bb6_6adf_4a21_8f84_20fb42eba9c2 p )  ) )) (and (= aux4 1) true)) (and (= aux4 0) false)))
(assert (and (=> (= aux4 0) (= weight4 1)) (=> (= aux4 1) (= weight4 0))))
(assert (= (+ (+ (+ (+ weight0 weight1) weight2) weight3) weight4) 4))

(assert (not (and (and (and (and (= weight0 1) (= weight1 1)) (= weight2 1)) (= weight3 1)) (= weight4 0)) ))

(assert (not (and (and (and (and (= weight0 0) (= weight1 1)) (= weight2 1)) (= weight3 1)) (= weight4 1)) ))
